
Gurobi 6.0.5 (linux64) logging started Fri Oct 20 10:35:44 2017


Gurobi 6.0.5 (linux64) logging started Fri Oct 20 10:35:44 2017


Gurobi 6.0.5 (linux64) logging started Fri Oct 20 10:35:44 2017


Gurobi 6.0.5 (linux64) logging started Fri Oct 20 10:35:45 2017


Gurobi 6.0.5 (linux64) logging started Fri Oct 20 10:35:45 2017


Gurobi 6.0.5 (linux64) logging started Fri Oct 20 10:35:45 2017


Gurobi 6.0.5 (linux64) logging started Fri Oct 20 10:35:45 2017


Gurobi 6.0.5 (linux64) logging started Fri Oct 20 10:35:45 2017


Gurobi 6.0.5 (linux64) logging started Fri Oct 20 10:35:45 2017


Gurobi 6.0.5 (linux64) logging started Fri Oct 20 10:36:14 2017


Gurobi 6.0.5 (linux64) logging started Fri Oct 20 10:36:14 2017


Gurobi 6.0.5 (linux64) logging started Fri Oct 20 10:36:14 2017


Gurobi 6.0.5 (linux64) logging started Fri Oct 20 10:36:14 2017


Gurobi 6.0.5 (linux64) logging started Fri Oct 20 10:36:14 2017


Gurobi 6.0.5 (linux64) logging started Fri Oct 20 10:36:14 2017


Gurobi 6.0.5 (linux64) logging started Fri Oct 20 10:36:14 2017


Gurobi 6.0.5 (linux64) logging started Fri Oct 20 10:36:15 2017


Gurobi 6.0.5 (linux64) logging started Fri Oct 20 10:36:15 2017


Gurobi 6.0.5 (linux64) logging started Mon Oct 23 09:03:08 2017


Gurobi 6.0.5 (linux64) logging started Mon Oct 23 09:05:14 2017


Gurobi 6.0.5 (linux64) logging started Mon Oct 23 09:09:07 2017


Gurobi 6.0.5 (linux64) logging started Mon Oct 23 09:32:46 2017


Gurobi 6.0.5 (linux64) logging started Mon Oct 23 09:32:46 2017


Gurobi 6.0.5 (linux64) logging started Mon Oct 23 09:32:46 2017


Gurobi 6.0.5 (linux64) logging started Mon Oct 23 09:33:00 2017


Gurobi 6.0.5 (linux64) logging started Mon Oct 23 09:33:00 2017


Gurobi 6.0.5 (linux64) logging started Mon Oct 23 09:33:00 2017

